c --- [ banner ] -------------------------------------------------------------
c 
c CaDiCaL Radically Simplified CDCL SAT Solver
c Copyright (c) 2016-2021 A. Biere, M. Fleury, N. Froleyks
c 
c Version 1.5.2 ca9bff05c11bde5eae4912f9932871d1527e61d8
c g++ (GCC) 9.3.0 -Wall -Wextra -O3 -DNDEBUG
c Sun May 1 02:23:23 EDT 2022 Linux gra-login1 3.10.0-1160.59.1.el7.x86_64 x86_64
c 
c --- [ limit ] --------------------------------------------------------------
c 
c setting conflict limit to 200000 conflicts (due to '200000')
c 
c --- [ parsing input ] ------------------------------------------------------
c 
c reading DIMACS file from '12.cubes759.adj'
c opening file to read '12.cubes759.adj'
c found 'p cnf 5320 924208' header
c parsed 924208 clauses in 8.79 seconds process time
c closing file '12.cubes759.adj'
c after reading 686668102 bytes 654.9 MB
c 
c --- [ options ] ------------------------------------------------------------
c 
c all options are set to their default value
c 
c --- [ solving ] ------------------------------------------------------------
c 
c time measured in process time since initialization
c 
c  seconds   reductions  redundant  irredundant
c          MB    restarts       trail      variables
c           level   conflicts       glue        remaining
c 
c *  8.79 692  0 0   0    0    0  0% 0 923580 3938 74%
c {  9.91 741  0 0   0    0    0  0% 0 923580 3938 74%
c i 11.21 754 84 0  21  139  113 54% 23 923580 3937 74%
c i 11.25 754 87 0  23  149  122 54% 25 923580 3936 74%
c i 11.27 754 89 0  24  151  123 54% 25 923580 3935 74%
c i 11.32 755 93 0  26  158  129 54% 26 923580 3934 74%
c i 11.44 756 93 0  28  167  137 54% 26 923580 3933 74%
c i 11.73 756 84 0  39  208  174 54% 27 923580 3932 74%
c i 11.85 757 73 0  39  289  244 54% 26 923580 3931 74%
c - 13.60 680 72 1  39  300  253 54% 27 96352 3931 74%
c i 13.66 680 72 1  39  302  254 54% 26 96352 3930 74%
c i 13.66 680 72 1  39  303  254 54% 26 96352 3929 74%
c i 13.75 681 77 1  44  338  281 54% 30 96352 3928 74%
c i 13.84 681 79 1  52  384  316 53% 30 96352 3927 74%
c i 13.85 681 79 1  54  392  320 53% 30 96352 3926 74%
c i 13.97 681 76 1  65  453  372 53% 30 96352 3925 74%
c i 14.25 681 82 1  81  534  443 52% 32 96352 3924 74%
c i 14.30 681 80 1  84  564  468 52% 31 96352 3923 74%
c i 14.39 681 73 1  84  650  532 52% 28 96352 3922 74%
c i 14.39 681 72 1  84  656  537 52% 28 96352 3921 74%
c 
c  seconds   reductions  redundant   irredundant
c          MB    restarts       trail      variables
c           level   conflicts       glue        remaining
c 
c i 14.52 681 66 1  84  772  635 52% 27 96352 3920 74%
c - 14.72 717 62 2  84  900  604 53% 26 96329 3920 74%
c } 14.78 717 61 2  85 1001  695 53% 26 96329 3920 74%
c [ 14.78 717  0 2  85 1001  695  0% 0 96329 3920 74%
c O 14.78 717  0 2  85 1002  695 30% 0 96329 3920 74%
c i 14.78 717  0 2  85 1002  695 30% 0 96329 3860 73%
c i 14.78 717  0 2  85 1003  695 29% 0 96329 3838 72%
c i 14.79 717  0 2  85 1004  695 31% 0 96329 3815 72%
c i 14.79 717  1 2  85 1017  704 34% 1 96329 3790 71%
c i 14.79 717  1 2  85 1022  706 34% 1 96329 3745 70%
c i 14.86 717 18 2  85 1202  821 51% 14 96329 3744 70%
c i 14.91 717 24 2  85 1421  962 52% 20 96329 3743 70%
c - 15.10 712 28 3  85 1800  947 53% 22 94316 3743 70%
c ] 15.39 712 30 3  86 3001 1759 55% 25 94316 3743 70%
c { 15.39 712 61 3  86 3001 1759 53% 26 94316 3743 70%
c - 15.43 712 61 4  86 3001 1312 53% 26 94316 3743 70%
c F 15.48 712 60 4  86 3006 1316  0% 26 94316 3743 70%
c i 15.48 712 60 4  86 3006 1316  0% 26 94316 3742 70%
c i 15.56 712 56 4  90 3166 1434 36% 25 94316 3741 70%
c - 15.99 681 40 5 120 4503 1633 37% 22 94312 3741 70%
c 
c  seconds   reductions  redundant   irredundant
c          MB    restarts       trail      variables
c           level   conflicts       glue        remaining
c 
c d 16.21 681 36 5 120 5000 1973 37% 20 78228 3732 70%
c 3 16.22 681 36 5 120 5000 3541 37% 20 78228 3732 70%
c 2 16.25 681 36 5 120 5000 3661 37% 20 78157 3709 70%
c p 17.06 681 36 5 120 5000 9139 37% 20 78157 3679 69%
c d 17.16 681 36 5 120 5000 8955 37% 20 72519 3674 69%
c # 17.43 681 32 5 121 6012 9660 37% 19 72519 3674 69%
c - 17.65 681 33 6 142 6303 2332 37% 20 72519 3674 69%
c } 18.08 681 34 6 232 7002 2850 36% 20 72519 3674 69%
c [ 18.08 681 30 6 232 7002 2850 78% 25 72519 3674 69%
c - 18.37 681 25 7 233 8406 2556 61% 21 72519 3674 69%
c I 18.69 681 24 7 234 10016 3507 54% 20 72519 3674 69%
c - 18.87 681 24 8 235 10807 2884 52% 20 72519 3674 69%
c - 19.31 681 22 9 237 13508 3307 47% 18 72519 3674 69%
c ] 19.57 681 22 9 237 15005 4376 46% 18 72519 3674 69%
c { 19.57 681 34 9 237 15005 4376 36% 20 72519 3674 69%
c d 19.62 681 34 9 237 15005 4372 36% 20 72398 3673 69%
c 2 19.65 681 34 9 237 15005 6318 36% 20 72390 3673 69%
c p 20.20 681 34 9 237 15005 12231 36% 20 72390 3668 69%
c B 20.24 681 34 9 239 15020 12244 36% 20 72390 3668 69%
c s 20.45 681 32 9 253 15751 12569 37% 20 70733 3668 69%
c 
c  seconds   reductions    redundant   irredundant
c          MB    restarts         trail      variables
c           level    conflicts        glue        remaining
c 
c v 21.05 681 32 9 253 15751 12569 37% 20 70645 3668 69%
c t 21.08 681 32 9 253 15751 12549 37% 20 70616 3668 69%
c e 21.26 682 32 9 253 15751 6602 37% 20 65656 986 19%
c s 21.33 682 32 9 253 15751 6602 37% 20 65552 986 19%
c - 21.74 682 31 10 258 16508 3805 64% 19 65552 986 19%
c - 22.33 682 27 11 284 19808 4073 63% 18 65552 986 19%
c W 22.72 682 26 11 286 21022 4990 62% 17 65552 986 19%
c - 24.02 681 27 12 486 23409 4838 61% 18 65552 986 19%
c - 26.36 681 30 13 996 27310 5605 61% 20 65552 986 19%
c F 26.93 681 31 13 1092 28025 6192 61% 20 65552 986 19%
c i 26.96 681 31 13 1092 28053 6197 61% 20 65552 953 18%
c p 27.87 681 30 13 1097 30007 10541 61% 20 65552 943 18%
c d 27.96 681 30 13 1097 30007 10430 61% 20 64815 942 18%
c d 28.00 681 30 13 1097 30007 10425 61% 20 64806 939 18%
c } 28.47 681 30 13 1153 31007 11156 61% 20 64806 939 18%
c [ 28.47 681 22 13 1153 31007 11156 173% 18 64806 939 18%
c - 28.60 681 21 14 1153 31510 6348 168% 18 64806 939 18%
c - 29.26 681 23 15 1156 36011 6296 135% 19 64806 939 18%
c B 29.28 681 23 15 1156 36028 6308 135% 19 64806 939 18%
c s 29.95 681 24 15 1159 39975 8935 119% 20 64432 939 18%
c 
c  seconds   reductions     redundant    irredundant
c          MB     restarts         trail       variables
c           level      conflicts        glue       remaining
c 
c v 30.57 681 24 15 1159 39975 8935 119% 20 64380 939 18%
c t 30.60 681 24 15 1159 39975 8932 119% 20 64378 939 18%
c e 30.76 681 24 15 1159 39975 8890 119% 20 64265 895 17%
c s 30.89 681 24 15 1159 39975 8890 119% 20 64123 895 17%
c - 31.23 681 23 16 1159 40813 6543 116% 20 64123 895 17%
c W 32.22 681 23 16 1160 45031 9477 105% 19 64123 895 17%
c - 32.37 681 23 17 1160 45913 7188 104% 19 64123 895 17%
c 2 32.92 681 25 17 1161 50009 11118 97% 21 64122 895 17%
c p 33.11 681 25 17 1161 50009 13373 97% 21 64122 895 17%
c - 33.35 681 25 18 1161 51315 7907 95% 21 64122 895 17%
c O 33.86 681 25 18 1162 55032 10384 91% 21 64122 895 17%
c - 34.18 681 25 19 1164 57015 7972 89% 21 64122 895 17%
c ] 34.95 681 25 19 1168 63010 11704 84% 21 64122 895 17%
c { 34.95 681 30 19 1168 63010 11704 61% 20 64122 895 17%
c - 34.97 681 30 20 1168 63017 8339 61% 20 64122 895 17%
c B 36.00 681 29 20 1373 66033 10446 61% 20 64122 895 17%
c - 36.52 681 28 21 1438 69318 8683 61% 19 64122 895 17%
c p 37.76 681 26 21 1532 75015 15648 61% 18 64122 895 17%
c - 38.18 681 27 22 1640 75920 9291 61% 19 64122 895 17%
c s 38.57 681 26 22 1640 76952 9885 61% 18 63960 895 17%
c 
c  seconds   reductions     redundant   irredundant
c          MB     restarts         trail      variables
c           level      conflicts       glue       remaining
c 
c v 39.00 681 26 22 1640 76952 9885 61% 18 63941 895 17%
c s 39.39 681 26 22 1640 76952 9885 61% 18 63881 895 17%
c W 39.89 681 26 22 1642 78034 10503 61% 18 63881 895 17%
c - 41.45 681 26 23 1948 82820 9776 60% 18 63881 895 17%
c - 42.40 681 24 24 2013 90021 9595 61% 18 63881 895 17%
c # 42.55 681 24 24 2013 91037 10199 60% 18 63881 895 17%
c - 44.00 681 24 25 2281 97522 10276 60% 18 63881 895 17%
c p 45.95 681 23 25 2483 105017 18649 60% 17 63881 895 17%
c B 46.00 681 23 25 2483 105038 18661 60% 17 63881 895 17%
c - 46.10 681 23 26 2520 105322 10907 60% 17 63881 895 17%
c - 47.66 681 23 27 2819 113423 11492 60% 17 63881 895 17%
c W 48.91 681 22 27 2882 120039 15597 60% 17 63881 895 17%
c - 49.33 681 22 28 2981 121823 11667 60% 17 63881 895 17%
c } 49.95 681 22 28 3079 127012 14365 60% 17 63881 895 17%
c [ 49.95 681 25 28 3079 127012 14365 84% 21 63881 895 17%
c - 50.43 681 25 29 3079 130528 11570 82% 21 63881 895 17%
c B 51.16 680 25 29 3083 136041 14956 79% 21 63881 895 17%
c - 51.80 680 26 30 3086 139528 12605 78% 22 63881 895 17%
c p 52.18 681 27 30 3086 140017 16508 78% 22 63881 895 17%
c s 52.52 681 27 30 3086 140017 16508 78% 22 63822 895 17%
c 
c  seconds   reductions       redundant   irredundant
c          MB     restarts           trail      variables
c           level      conflicts         glue       remaining
c 
c v 53.01 681 27 30 3086 140017 16508 78% 22 63801 895 17%
c w 53.05 681 27 30 3086 140017 16502 78% 22 63801 895 17%
c s 53.38 680 27 30 3086 140017 16322 78% 22 62638 895 17%
c e 53.52 681 27 30 3086 140017 16020 78% 22 62547 841 16%
c - 55.44 681 27 31 3087 148828 14264 63% 23 62547 841 16%
c W 56.35 681 27 31 3088 153044 17236 63% 23 62547 841 16%
c - 57.45 681 28 32 3088 158428 14143 63% 23 62547 841 16%
c - 59.42 681 28 33 3088 168328 14650 62% 23 62547 841 16%
c I 59.85 681 28 33 3091 171047 16611 63% 24 62547 841 16%
c - 62.71 681 27 34 3095 178529 14688 62% 23 62547 841 16%
c p 63.49 681 27 34 3095 180018 18993 62% 23 62547 841 16%
c - 66.27 681 26 35 3101 189030 14990 61% 22 62547 841 16%
c B 66.53 681 26 35 3102 190052 15606 61% 22 62547 841 16%
c - 68.07 681 28 36 3103 199831 16214 62% 24 62547 841 16%
c ] 68.11 681 28 36 3103 200004 16336 62% 24 62547 841 16%
c ? 68.11 681 28 36 3103 200004 16336 62% 24 62547 841 16%
c 
c --- [ writing output ] -----------------------------------------------------
c 
c writing simplified CNF to DIMACS file 'simp/12.cubes759.adj.simp1'
c * 68.11 681 28 36 3103 200004 16336 62% 24 62547 841 16%
c opening file to write 'simp/12.cubes759.adj.simp1'
c writing 'p cnf 5320 62547' header
c closing file 'simp/12.cubes759.adj.simp1'
c after writing 21827770 bytes 20.8 MB
c wrote 62547 clauses in 0.21 seconds process time
c 
c --- [ writing extension ] --------------------------------------------------
c 
c writing extension stack to 'simp/12.cubes759.adj.ext1'
c opening file to write 'simp/12.cubes759.adj.ext1'
c closing file 'simp/12.cubes759.adj.ext1'
c after writing 169714 bytes 0.2 MB
c wrote 7661 witnesses in 0.00 seconds process time
c 
c --- [ result ] -------------------------------------------------------------
c 
c UNKNOWN
c 
c --- [ run-time profiling ] -------------------------------------------------
c 
c process time taken by individual solving procedures
c (percentage relative to process time for solving)
c 
c        50.77   85.59% search
c        25.66   43.25% unstable
c        22.94   38.68% stable
c         8.79   14.83% parse
c         8.55   14.41% simplify
c         3.21    5.42% probe
c         2.24    3.78% vivify
c         1.32    2.23% subsume
c         1.20    2.02% elim
c         1.12    1.89% lucky
c         1.05    1.77% walk
c         0.11    0.18% ternary
c   =================================
c        59.31   86.82% solve
c 
c last line shows process time for solving
c (percentage relative to total process time)
c 
c --- [ statistics ] ---------------------------------------------------------
c 
c chronological:             35437        17.72 %  of conflicts
c conflicts:                200004      3372.11    per second
c decisions:                353573      5961.31    per second
c eliminated:                 2780        52.26 %  of all variables
c fixed:                      1680        31.58 %  of all variables
c learned:                  195594        97.80 %  per conflict
c learned_lits:           31135308       100.00 %  learned literals
c minimized:                     0         0.00 %  learned literals
c shrunken:               18956231        60.88 %  learned literals
c minishrunken:            2773387         8.91 %  learned literals
c propagations:           14279721         0.24 M  per second
c reduced:                  116762        58.38 %  per conflict
c rephased:                     19     10526.53    interval
c restarts:                   3103        64.46    interval
c stabilizing:                   4        57.50 %  of conflicts
c substituted:                  19         0.36 %  of all variables
c subsumed:                  66377         2.86 %  of all clauses
c strengthened:              25905         1.12 %  of all clauses
c ternary:                    7396         0.67 %  of resolved
c vivified:                    215         0.01 %  of all clauses
c walked:                        5     40000.80    interval
c weakened:                   5981         3.05    average size
c 
c seconds are measured in process time for solving
c 
c --- [ resources ] ----------------------------------------------------------
c 
c total process time since initialization:        68.31    seconds
c total real time since initialization:           68.40    seconds
c maximum resident set size of process:          756.68    MB
c 
c --- [ shutting down ] ------------------------------------------------------
c 
c exit 0
WARNING! DIMACS header mismatch: wrong number of variables.
============================[ Problem Statistics ]=============================
|                                                                             |
|  Number of variables:          3425                                         |
|  Number of clauses:           62553                                         |
|  Parse time:                   0.30 s                                       |
|  Simplification time:          0.01 s                                       |
|                                                                             |
============================[ Search Statistics ]====================================================
| Conflicts |          ORIGINAL         |          LEARNT          | Num Sols |      SUBGRAPHS      |
|           |    Vars  Clauses Literals |    Limit  Clauses Lit/Cl |          | Canonical Noncanon. |
=====================================================================================================
|       104 |    3334    62557  4767254 |     2000      104    115 |        0 |        15         4 |
|       266 |    3334    62569  4767401 |     2000      266     84 |        0 |        31        16 |
|       544 |    3334    62622  4768030 |     2000      544     77 |        0 |        40        69 |
|       886 |    3334    62627  4768252 |     2000      886     83 |        0 |        48        74 |
|      1421 |    3334    62656  4769421 |     2000     1421     89 |        0 |        58       103 |
|      2192 |    3334    62668  4769762 |     3600     1192     59 |        0 |        70       115 |
|      3339 |    3334    62676  4769907 |     3600     2339     66 |        0 |        75       123 |
|      5095 |    3334    62724  4771067 |     5001     2296     59 |        0 |       118       171 |
|      7878 |    3334    62945  4775663 |     6306     2584     41 |        0 |       197       392 |
|     11958 |    3334    63181  4779511 |     7554     3512     39 |        0 |       266       628 |
|     17834 |    3334    63291  4781869 |     8777     5611     46 |        0 |       328       738 |
|     26777 |    3334    63585  4786540 |    11208     5185     27 |        0 |       411      1032 |
|     40266 |    3334    64100  4795933 |    13610     6876     30 |        0 |       592      1547 |
|     60342 |    3334    64715  4807872 |    16005    12747     48 |        0 |       770      2162 |
|     90556 |    3334    65737  4823788 |    19607    17163     50 |        0 |      1111      3184 |
|    136383 |    3334    67775  4858510 |    24409    20192     41 |        0 |      1676      5222 |
|    204325 |    3334    70033  4895363 |    30410    21135     37 |        0 |      2617      7480 |
|    305706 |    3334    72888  4932861 |    37617    22323     36 |        0 |      3876     10335 |
|    459924 |    3283    65202  4492832 |    44847    31171     52 |        0 |      5729     16764 |
|    686499 |    3283    70094  4563022 |    56813    30312     36 |        0 |      7416     21656 |
|   1026136 |    3283    77206  4647791 |    68820    58956     51 |        0 |      9240     28768 |
|   1533528 |    3272    48458  3573587 |    84233    44547     68 |        0 |     12989     37372 |
=====================================================================================================
Number of solutions   : 0
Canonical subgraphs   : 14964          (8 /sec)
          order  3    : 1              (166667 /sec)
          order  4    : 1              (500000 /sec)
          order  5    : 1              (200000 /sec)
          order  6    : 1              (55556 /sec)
          order  7    : 1              (8696 /sec)
          order  8    : 2              (1354 /sec)
          order  9    : 4              (239 /sec)
          order 10    : 9              (45 /sec)
          order 11    : 40             (13 /sec)
          order 12    : 314            (5 /sec)
          order 13    : 1308           (6 /sec)
          order 14    : 5558           (9 /sec)
          order 15    : 7043           (9 /sec)
          order 16    : 595            (9 /sec)
          order 17    : 83             (5 /sec)
          order 18    : 3              (8 /sec)
          order 19    : 0              (-nan /sec)
          order 20    : 0              (-nan /sec)
          order 21    : 0              (-nan /sec)
Noncanonical subgraphs: 43573          (1921 /sec)
          order  3    : 0              (-nan /sec)
          order  4    : 0              (-nan /sec)
          order  5    : 0              (-nan /sec)
          order  6    : 0              (-nan /sec)
          order  7    : 0              (-nan /sec)
          order  8    : 0              (-nan /sec)
          order  9    : 0              (-nan /sec)
          order 10    : 0              (-nan /sec)
          order 11    : 0              (-nan /sec)
          order 12    : 0              (-nan /sec)
          order 13    : 5205           (7969 /sec)
          order 14    : 24320          (2950 /sec)
          order 15    : 10795          (3032 /sec)
          order 16    : 2990           (492 /sec)
          order 17    : 263            (63 /sec)
          order 18    : 0              (-nan /sec)
          order 19    : 0              (-nan /sec)
          order 20    : 0              (-nan /sec)
Canonicity checking   : 1770.67 s
Noncanonicity checking: 22.6825 s
Total canonicity time : 1793.36 s
database reductions   : 75
restarts              : 3578
conflicts             : 1825393        (865 /sec)
decisions             : 2390589        (0.00 % random) (1133 /sec)
propagations          : 87679031       (41569 /sec)
conflict literals     : 145215163      (53.86 % deleted)
actual reward         : 0.264239
Memory used           : 147.00 MB
CPU time              : 2109.24 s

UNSATISFIABLE
